swarm_exploration/utils/lkh_mtsp_solver/resource/amtsp_3.atsp
NAME : amtsp
TYPE : ATSP
DIMENSION : 4
EDGE_WEIGHT_TYPE : EXPLICIT
EDGE_WEIGHT_FORMAT : FULL_MATRIX
EDGE_WEIGHT_SECTION
100000 -100000 100000 100000 
100000 100000 110 100000 
0 0 100000 365 
-100000 100000 365 100000 
