swarm_exploration/utils/lkh_mtsp_solver/resource/amtsp_3.tour
NAME : amtsp.-99715.tour
COMMENT : Length = -99715
COMMENT : Found by LKH [Keld Helsgaun] Wed Oct 23 18:57:41 2024
TYPE : TOUR
DIMENSION : 3
TOUR_SECTION
1
2
3
-1
EOF
